c instance by G2
c solution = 01111100011
c Known solution cost is 460 
p cnf 11 30
w 89 77 36 27 30 23 37 70 18 37 16
7 3 -11 0
10 -6 7 0
8 -11 5 0
-1 -2 7 0
-7 8 3 0
6 4 -5 0
7 -6 4 0
-8 2 -4 0
-4 3 -11 0
10 -7 3 0
11 -7 -1 0
-1 4 -8 0
-3 -5 -8 0
-7 -4 -10 0
1 -5 6 0
-9 7 -3 0
5 -11 -4 0
-6 11 -2 0
-8 -4 -10 0
-1 9 -4 0
-1 4 11 0
-3 -9 -11 0
8 -10 11 0
5 -10 8 0
-1 11 -6 0
-8 6 7 0
2 -3 -9 0
8 6 -3 0
-3 -10 2 0
6 -1 9 0
